27 105
6 18
18 26
22 26
12 25
14 22
9 17
2 11
13 17
6 11
7 10
7 19
3 15
9 10
3 24
4 23
11 16
0 16
1 17
13 19
7 12
1 26
15 25
2 25
16 24
18 21
20 24
5 14
9 21
1 19
18 23
5 7
4 18
1 3
13 14
1 12
16 19
7 16
12 15
3 12
4 20
13 16
2 13
1 23
2 22
3 14
4 13
23 26
3 23
4 22
1 7
2 15
25 26
21 22
14 25
4 24
8 15
19 24
10 21
9 23
0 20
7 25
1 11
0 13
2 10
8 26
1 20
11 22
6 10
15 22
3 11
12 23
4 19
0 6
1 13
2 12
4 12
9 11
2 5
8 21
10 18
2 14
2 23
6 14
7 13
16 25
18 22
4 5
7 22
4 14
8 14
10 11
17 26
0 19
11 19
6 7
16 18
18 24
21 23
14 20
10 13
0 12
11 12
2 18
13 15
6 9
